(set-option :global-declarations true)
(set-logic ALL)
(declare-const BAV1 Bool)
(get-model)
(declare-const BAV2 Bool)
(declare-const BAV3 Bool)
(declare-const GEN1 (_ BitVec 3))
(set-option :incremental true)
(declare-fun x2 () (_ BitVec 3))
(declare-fun x1 () (_ BitVec 3))
(declare-fun x0 () (_ BitVec 3))
(assert (bvult (bvudiv (bvudiv (bvudiv x0 x0) x1) x2) x1))
(assert (= GEN1 x2))
(assert (= BAV1 (= GEN1 x2)))
(assert (= BAV2 (= x2 x1)))
(assert (= BAV3 (distinct x1 x1)))
(check-sat)
(get-model)
(reset-assertions)
(assert (= x2 x1))
(check-sat)
(reset-assertions)
(assert (distinct x1 x1))
(check-sat)